(set-logic QF_FPABV)
(declare-fun b662 () (_ FP 8 24))
(declare-fun b1084 () (_ FP 8 24))
(declare-fun b1141 () (_ FP 8 24))
(declare-fun b1554 () (_ FP 8 24))
(declare-fun b1110 () (_ FP 8 24))
(declare-fun b1246 () (_ FP 8 24))
(declare-fun b1211 () (_ FP 8 24))
(declare-fun b1421 () (_ FP 8 24))
(declare-fun b1491 () (_ FP 8 24))
(declare-fun b652 () (_ FP 11 53))
(declare-fun b1545 () (_ FP 8 24))
(declare-fun b174 () (_ FP 11 53))
(declare-fun b1461 () (_ FP 8 24))
(declare-fun b1089 () (_ FP 8 24))
(declare-fun b1281 () (_ FP 8 24))
(declare-fun b1316 () (_ FP 8 24))
(declare-fun b1496 () (_ FP 8 24))
(declare-fun b1526 () (_ FP 8 24))
(declare-fun b176 () (_ FP 8 24))
(declare-fun b1456 () (_ FP 8 24))
(declare-fun b1216 () (_ FP 8 24))
(declare-fun b169 () (_ FP 8 24))
(declare-fun b1181 () (_ FP 8 24))
(declare-fun b1351 () (_ FP 8 24))
(declare-fun b1391 () (_ FP 8 24))
(declare-fun b1426 () (_ FP 8 24))
(declare-fun b185 () (_ FP 11 53))
(declare-fun b1146 () (_ FP 8 24))
(declare-fun b1356 () (_ FP 8 24))
(declare-fun b1321 () (_ FP 8 24))
(declare-fun b1251 () (_ FP 8 24))
(declare-fun b171 () (_ FP 8 24))
(declare-fun b1176 () (_ FP 8 24))
(declare-fun b1286 () (_ FP 8 24))
(declare-fun b1386 () (_ FP 8 24))
(declare-fun b1105 () (_ FP 8 24))
(define-fun .3 () RoundingMode roundNearestTiesToEven)
(define-fun .9 () (_ FP 8 24) b169)
(define-fun .10 () (_ FP 8 24) b171)
(define-fun .11 () (_ FP 8 24) (/ .3 .9 .10))
(define-fun .12 () (_ FP 11 53) ((_ asFloat 11 53) .3 .11))
(define-fun .13 () (_ FP 11 53) b185)
(define-fun .14 () (_ FP 11 53) (* .3 .12 .13))
(define-fun .15 () (_ FP 8 24) (* .3 .11 .11))
(define-fun .16 () (_ FP 8 24) (- .15))
(define-fun .17 () (_ FP 8 24) (+ .3 .9 .16))
(define-fun .18 () (_ FP 11 53) ((_ asFloat 11 53) .3 .17))
(define-fun .19 () (_ FP 11 53) (/ .3 .18 .14))
(define-fun .20 () (_ FP 8 24) ((_ asFloat 8 24) .3 .19))
(define-fun .21 () (_ FP 8 24) (+ .3 .11 .20))
(define-fun .22 () (_ FP 8 24) (* .3 .21 .21))
(define-fun .23 () (_ FP 8 24) (- .22))
(define-fun .24 () (_ FP 8 24) (+ .3 .9 .23))
(define-fun .25 () (_ FP 11 53) ((_ asFloat 11 53) .3 .24))
(define-fun .26 () (_ FP 8 24) ((_ asFloat 8 24) .3 .25))
(define-fun .27 () (_ FP 8 24) b1554)
(define-fun .28 () Bool (= .26 .27))
(define-fun .29 () Bool (not .28))
(define-fun .30 () (_ FP 11 53) ((_ asFloat 11 53) .3 .21))
(define-fun .31 () (_ FP 11 53) (* .3 .13 .30))
(define-fun .32 () (_ FP 11 53) (/ .3 .25 .31))
(define-fun .33 () (_ FP 8 24) ((_ asFloat 8 24) .3 .32))
(define-fun .34 () (_ FP 8 24) (+ .3 .21 .33))
(define-fun .35 () (_ FP 8 24) (* .3 .34 .34))
(define-fun .36 () (_ FP 8 24) (- .35))
(define-fun .37 () (_ FP 8 24) (+ .3 .9 .36))
(define-fun .38 () (_ FP 11 53) ((_ asFloat 11 53) .3 .37))
(define-fun .39 () (_ FP 8 24) ((_ asFloat 8 24) .3 .38))
(define-fun .40 () (_ FP 8 24) b1545)
(define-fun .41 () Bool (= .39 .40))
(define-fun .42 () Bool (not .41))
(define-fun .43 () (_ FP 8 24) b1496)
(define-fun .44 () Bool (= .34 .43))
(define-fun .45 () Bool (not .44))
(define-fun .46 () (_ FP 11 53) ((_ asFloat 11 53) .3 .43))
(define-fun .47 () (_ FP 11 53) (* .3 .13 .46))
(define-fun .48 () (_ FP 8 24) (* .3 .43 .43))
(define-fun .49 () (_ FP 8 24) (- .48))
(define-fun .50 () (_ FP 8 24) (+ .3 .9 .49))
(define-fun .51 () (_ FP 11 53) ((_ asFloat 11 53) .3 .50))
(define-fun .52 () (_ FP 11 53) (/ .3 .51 .47))
(define-fun .53 () (_ FP 8 24) ((_ asFloat 8 24) .3 .52))
(define-fun .54 () (_ FP 8 24) (+ .3 .43 .53))
(define-fun .55 () (_ FP 8 24) (* .3 .54 .54))
(define-fun .56 () (_ FP 8 24) (- .55))
(define-fun .57 () (_ FP 8 24) (+ .3 .9 .56))
(define-fun .58 () (_ FP 11 53) ((_ asFloat 11 53) .3 .57))
(define-fun .59 () (_ FP 8 24) ((_ asFloat 8 24) .3 .58))
(define-fun .60 () (_ FP 8 24) b1526)
(define-fun .61 () Bool (= .59 .60))
(define-fun .62 () Bool (not .61))
(define-fun .63 () (_ FP 8 24) b1461)
(define-fun .64 () Bool (= .54 .63))
(define-fun .65 () Bool (not .64))
(define-fun .66 () (_ FP 11 53) ((_ asFloat 11 53) .3 .63))
(define-fun .67 () (_ FP 11 53) (* .3 .13 .66))
(define-fun .68 () (_ FP 8 24) (* .3 .63 .63))
(define-fun .69 () (_ FP 8 24) (- .68))
(define-fun .70 () (_ FP 8 24) (+ .3 .9 .69))
(define-fun .71 () (_ FP 11 53) ((_ asFloat 11 53) .3 .70))
(define-fun .72 () (_ FP 11 53) (/ .3 .71 .67))
(define-fun .73 () (_ FP 8 24) ((_ asFloat 8 24) .3 .72))
(define-fun .74 () (_ FP 8 24) (+ .3 .63 .73))
(define-fun .75 () (_ FP 8 24) (* .3 .74 .74))
(define-fun .76 () (_ FP 8 24) (- .75))
(define-fun .77 () (_ FP 8 24) (+ .3 .9 .76))
(define-fun .78 () (_ FP 11 53) ((_ asFloat 11 53) .3 .77))
(define-fun .79 () (_ FP 8 24) ((_ asFloat 8 24) .3 .78))
(define-fun .80 () (_ FP 8 24) b1491)
(define-fun .81 () Bool (= .79 .80))
(define-fun .82 () Bool (not .81))
(define-fun .83 () (_ FP 8 24) b1426)
(define-fun .84 () (_ FP 11 53) ((_ asFloat 11 53) .3 .83))
(define-fun .85 () (_ FP 11 53) (* .3 .13 .84))
(define-fun .86 () (_ FP 8 24) (* .3 .83 .83))
(define-fun .87 () (_ FP 8 24) (- .86))
(define-fun .88 () (_ FP 8 24) (+ .3 .9 .87))
(define-fun .89 () (_ FP 11 53) ((_ asFloat 11 53) .3 .88))
(define-fun .90 () (_ FP 11 53) (/ .3 .89 .85))
(define-fun .91 () (_ FP 8 24) ((_ asFloat 8 24) .3 .90))
(define-fun .92 () (_ FP 8 24) (+ .3 .83 .91))
(define-fun .93 () (_ FP 8 24) (* .3 .92 .92))
(define-fun .94 () (_ FP 8 24) (- .93))
(define-fun .95 () (_ FP 8 24) (+ .3 .9 .94))
(define-fun .96 () (_ FP 11 53) ((_ asFloat 11 53) .3 .95))
(define-fun .97 () (_ FP 8 24) ((_ asFloat 8 24) .3 .96))
(define-fun .98 () (_ FP 8 24) b1456)
(define-fun .99 () Bool (= .97 .98))
(define-fun .100 () Bool (not .99))
(define-fun .101 () Bool (= .74 .83))
(define-fun .102 () Bool (not .101))
(define-fun .103 () (_ FP 8 24) b1391)
(define-fun .104 () Bool (= .92 .103))
(define-fun .105 () Bool (not .104))
(define-fun .106 () (_ FP 11 53) ((_ asFloat 11 53) .3 .103))
(define-fun .107 () (_ FP 11 53) (* .3 .13 .106))
(define-fun .108 () (_ FP 8 24) (* .3 .103 .103))
(define-fun .109 () (_ FP 8 24) (- .108))
(define-fun .110 () (_ FP 8 24) (+ .3 .9 .109))
(define-fun .111 () (_ FP 11 53) ((_ asFloat 11 53) .3 .110))
(define-fun .112 () (_ FP 11 53) (/ .3 .111 .107))
(define-fun .113 () (_ FP 8 24) ((_ asFloat 8 24) .3 .112))
(define-fun .114 () (_ FP 8 24) (+ .3 .103 .113))
(define-fun .115 () (_ FP 8 24) (* .3 .114 .114))
(define-fun .116 () (_ FP 8 24) (- .115))
(define-fun .117 () (_ FP 8 24) (+ .3 .9 .116))
(define-fun .118 () (_ FP 11 53) ((_ asFloat 11 53) .3 .117))
(define-fun .119 () (_ FP 8 24) ((_ asFloat 8 24) .3 .118))
(define-fun .120 () (_ FP 8 24) b1421)
(define-fun .121 () Bool (= .119 .120))
(define-fun .122 () Bool (not .121))
(define-fun .123 () (_ FP 8 24) b1356)
(define-fun .124 () Bool (= .114 .123))
(define-fun .125 () Bool (not .124))
(define-fun .126 () (_ FP 11 53) ((_ asFloat 11 53) .3 .123))
(define-fun .127 () (_ FP 11 53) (* .3 .13 .126))
(define-fun .128 () (_ FP 8 24) (* .3 .123 .123))
(define-fun .129 () (_ FP 8 24) (- .128))
(define-fun .130 () (_ FP 8 24) (+ .3 .9 .129))
(define-fun .131 () (_ FP 11 53) ((_ asFloat 11 53) .3 .130))
(define-fun .132 () (_ FP 11 53) (/ .3 .131 .127))
(define-fun .133 () (_ FP 8 24) ((_ asFloat 8 24) .3 .132))
(define-fun .134 () (_ FP 8 24) (+ .3 .123 .133))
(define-fun .135 () (_ FP 8 24) (* .3 .134 .134))
(define-fun .136 () (_ FP 8 24) (- .135))
(define-fun .137 () (_ FP 8 24) (+ .3 .9 .136))
(define-fun .138 () (_ FP 11 53) ((_ asFloat 11 53) .3 .137))
(define-fun .139 () (_ FP 8 24) ((_ asFloat 8 24) .3 .138))
(define-fun .140 () (_ FP 8 24) b1386)
(define-fun .141 () Bool (= .139 .140))
(define-fun .142 () Bool (not .141))
(define-fun .143 () (_ FP 8 24) b1321)
(define-fun .144 () Bool (= .134 .143))
(define-fun .145 () Bool (not .144))
(define-fun .146 () (_ FP 11 53) ((_ asFloat 11 53) .3 .143))
(define-fun .147 () (_ FP 11 53) (* .3 .13 .146))
(define-fun .148 () (_ FP 8 24) (* .3 .143 .143))
(define-fun .149 () (_ FP 8 24) (- .148))
(define-fun .150 () (_ FP 8 24) (+ .3 .9 .149))
(define-fun .151 () (_ FP 11 53) ((_ asFloat 11 53) .3 .150))
(define-fun .152 () (_ FP 11 53) (/ .3 .151 .147))
(define-fun .153 () (_ FP 8 24) ((_ asFloat 8 24) .3 .152))
(define-fun .154 () (_ FP 8 24) (+ .3 .143 .153))
(define-fun .155 () (_ FP 8 24) (* .3 .154 .154))
(define-fun .156 () (_ FP 8 24) (- .155))
(define-fun .157 () (_ FP 8 24) (+ .3 .9 .156))
(define-fun .158 () (_ FP 11 53) ((_ asFloat 11 53) .3 .157))
(define-fun .159 () (_ FP 8 24) ((_ asFloat 8 24) .3 .158))
(define-fun .160 () (_ FP 8 24) b1351)
(define-fun .161 () Bool (= .159 .160))
(define-fun .162 () Bool (not .161))
(define-fun .163 () (_ FP 8 24) b1286)
(define-fun .164 () Bool (= .154 .163))
(define-fun .165 () Bool (not .164))
(define-fun .166 () (_ FP 11 53) ((_ asFloat 11 53) .3 .163))
(define-fun .167 () (_ FP 11 53) (* .3 .13 .166))
(define-fun .168 () (_ FP 8 24) (* .3 .163 .163))
(define-fun .169 () (_ FP 8 24) (- .168))
(define-fun .170 () (_ FP 8 24) (+ .3 .9 .169))
(define-fun .171 () (_ FP 11 53) ((_ asFloat 11 53) .3 .170))
(define-fun .172 () (_ FP 11 53) (/ .3 .171 .167))
(define-fun .173 () (_ FP 8 24) ((_ asFloat 8 24) .3 .172))
(define-fun .174 () (_ FP 8 24) (+ .3 .163 .173))
(define-fun .175 () (_ FP 8 24) (* .3 .174 .174))
(define-fun .176 () (_ FP 8 24) (- .175))
(define-fun .177 () (_ FP 8 24) (+ .3 .9 .176))
(define-fun .178 () (_ FP 11 53) ((_ asFloat 11 53) .3 .177))
(define-fun .179 () (_ FP 8 24) ((_ asFloat 8 24) .3 .178))
(define-fun .180 () (_ FP 8 24) b1316)
(define-fun .181 () Bool (= .179 .180))
(define-fun .182 () Bool (not .181))
(define-fun .183 () (_ FP 8 24) b1251)
(define-fun .184 () Bool (= .174 .183))
(define-fun .185 () Bool (not .184))
(define-fun .186 () (_ FP 11 53) ((_ asFloat 11 53) .3 .183))
(define-fun .187 () (_ FP 11 53) (* .3 .13 .186))
(define-fun .188 () (_ FP 8 24) (* .3 .183 .183))
(define-fun .189 () (_ FP 8 24) (- .188))
(define-fun .190 () (_ FP 8 24) (+ .3 .9 .189))
(define-fun .191 () (_ FP 11 53) ((_ asFloat 11 53) .3 .190))
(define-fun .192 () (_ FP 11 53) (/ .3 .191 .187))
(define-fun .193 () (_ FP 8 24) ((_ asFloat 8 24) .3 .192))
(define-fun .194 () (_ FP 8 24) (+ .3 .183 .193))
(define-fun .195 () (_ FP 8 24) (* .3 .194 .194))
(define-fun .196 () (_ FP 8 24) (- .195))
(define-fun .197 () (_ FP 8 24) (+ .3 .9 .196))
(define-fun .198 () (_ FP 11 53) ((_ asFloat 11 53) .3 .197))
(define-fun .199 () (_ FP 8 24) ((_ asFloat 8 24) .3 .198))
(define-fun .200 () (_ FP 8 24) b1281)
(define-fun .201 () Bool (= .199 .200))
(define-fun .202 () Bool (not .201))
(define-fun .203 () (_ FP 8 24) b1216)
(define-fun .204 () Bool (= .194 .203))
(define-fun .205 () Bool (not .204))
(define-fun .206 () (_ FP 11 53) ((_ asFloat 11 53) .3 .203))
(define-fun .207 () (_ FP 11 53) (* .3 .13 .206))
(define-fun .208 () (_ FP 8 24) (* .3 .203 .203))
(define-fun .209 () (_ FP 8 24) (- .208))
(define-fun .210 () (_ FP 8 24) (+ .3 .9 .209))
(define-fun .211 () (_ FP 11 53) ((_ asFloat 11 53) .3 .210))
(define-fun .212 () (_ FP 11 53) (/ .3 .211 .207))
(define-fun .213 () (_ FP 8 24) ((_ asFloat 8 24) .3 .212))
(define-fun .214 () (_ FP 8 24) (+ .3 .203 .213))
(define-fun .215 () (_ FP 8 24) (* .3 .214 .214))
(define-fun .216 () (_ FP 8 24) (- .215))
(define-fun .217 () (_ FP 8 24) (+ .3 .9 .216))
(define-fun .218 () (_ FP 11 53) ((_ asFloat 11 53) .3 .217))
(define-fun .219 () (_ FP 8 24) ((_ asFloat 8 24) .3 .218))
(define-fun .220 () (_ FP 8 24) b1246)
(define-fun .221 () Bool (= .219 .220))
(define-fun .222 () Bool (not .221))
(define-fun .223 () (_ FP 8 24) b1181)
(define-fun .224 () Bool (= .214 .223))
(define-fun .225 () Bool (not .224))
(define-fun .226 () (_ FP 11 53) ((_ asFloat 11 53) .3 .223))
(define-fun .227 () (_ FP 11 53) (* .3 .13 .226))
(define-fun .228 () (_ FP 8 24) (* .3 .223 .223))
(define-fun .229 () (_ FP 8 24) (- .228))
(define-fun .230 () (_ FP 8 24) (+ .3 .9 .229))
(define-fun .231 () (_ FP 11 53) ((_ asFloat 11 53) .3 .230))
(define-fun .232 () (_ FP 11 53) (/ .3 .231 .227))
(define-fun .233 () (_ FP 8 24) ((_ asFloat 8 24) .3 .232))
(define-fun .234 () (_ FP 8 24) (+ .3 .223 .233))
(define-fun .235 () (_ FP 8 24) (* .3 .234 .234))
(define-fun .236 () (_ FP 8 24) (- .235))
(define-fun .237 () (_ FP 8 24) (+ .3 .9 .236))
(define-fun .238 () (_ FP 11 53) ((_ asFloat 11 53) .3 .237))
(define-fun .239 () (_ FP 8 24) ((_ asFloat 8 24) .3 .238))
(define-fun .240 () (_ FP 8 24) b1211)
(define-fun .241 () Bool (= .239 .240))
(define-fun .242 () Bool (not .241))
(define-fun .243 () (_ FP 8 24) b1146)
(define-fun .244 () Bool (= .234 .243))
(define-fun .245 () Bool (not .244))
(define-fun .246 () (_ FP 11 53) ((_ asFloat 11 53) .3 .243))
(define-fun .247 () (_ FP 11 53) (* .3 .13 .246))
(define-fun .248 () (_ FP 8 24) (* .3 .243 .243))
(define-fun .249 () (_ FP 8 24) (- .248))
(define-fun .250 () (_ FP 8 24) (+ .3 .9 .249))
(define-fun .251 () (_ FP 11 53) ((_ asFloat 11 53) .3 .250))
(define-fun .252 () (_ FP 11 53) (/ .3 .251 .247))
(define-fun .253 () (_ FP 8 24) ((_ asFloat 8 24) .3 .252))
(define-fun .254 () (_ FP 8 24) (+ .3 .243 .253))
(define-fun .255 () (_ FP 8 24) (* .3 .254 .254))
(define-fun .256 () (_ FP 8 24) (- .255))
(define-fun .257 () (_ FP 8 24) (+ .3 .9 .256))
(define-fun .258 () (_ FP 11 53) ((_ asFloat 11 53) .3 .257))
(define-fun .259 () (_ FP 8 24) ((_ asFloat 8 24) .3 .258))
(define-fun .260 () (_ FP 8 24) b1176)
(define-fun .261 () Bool (= .259 .260))
(define-fun .262 () Bool (not .261))
(define-fun .263 () (_ FP 8 24) b1110)
(define-fun .264 () Bool (= .254 .263))
(define-fun .265 () Bool (not .264))
(define-fun .266 () (_ FP 11 53) ((_ asFloat 11 53) .3 .263))
(define-fun .267 () (_ FP 11 53) (* .3 .13 .266))
(define-fun .268 () (_ FP 8 24) (* .3 .263 .263))
(define-fun .269 () (_ FP 8 24) (- .268))
(define-fun .270 () (_ FP 8 24) (+ .3 .9 .269))
(define-fun .271 () (_ FP 11 53) ((_ asFloat 11 53) .3 .270))
(define-fun .272 () (_ FP 11 53) (/ .3 .271 .267))
(define-fun .273 () (_ FP 8 24) ((_ asFloat 8 24) .3 .272))
(define-fun .274 () (_ FP 8 24) (+ .3 .263 .273))
(define-fun .275 () (_ FP 8 24) (* .3 .274 .274))
(define-fun .276 () (_ FP 8 24) (- .275))
(define-fun .277 () (_ FP 8 24) (+ .3 .9 .276))
(define-fun .278 () (_ FP 11 53) ((_ asFloat 11 53) .3 .277))
(define-fun .279 () (_ FP 8 24) ((_ asFloat 8 24) .3 .278))
(define-fun .280 () (_ FP 8 24) b1141)
(define-fun .281 () Bool (= .279 .280))
(define-fun .282 () Bool (not .281))
(define-fun .283 () (_ FP 8 24) b1089)
(define-fun .284 () Bool (= .274 .283))
(define-fun .285 () Bool (not .284))
(define-fun .286 () (_ FP 11 53) ((_ asFloat 11 53) .3 .283))
(define-fun .287 () (_ FP 11 53) (* .3 .13 .286))
(define-fun .288 () (_ FP 8 24) (* .3 .283 .283))
(define-fun .289 () (_ FP 8 24) (- .288))
(define-fun .290 () (_ FP 8 24) (+ .3 .9 .289))
(define-fun .291 () (_ FP 11 53) ((_ asFloat 11 53) .3 .290))
(define-fun .292 () (_ FP 11 53) (/ .3 .291 .287))
(define-fun .293 () (_ FP 8 24) ((_ asFloat 8 24) .3 .292))
(define-fun .294 () (_ FP 8 24) (+ .3 .283 .293))
(define-fun .295 () (_ FP 8 24) (* .3 .294 .294))
(define-fun .296 () (_ FP 8 24) (- .295))
(define-fun .297 () (_ FP 8 24) (+ .3 .9 .296))
(define-fun .298 () (_ FP 11 53) ((_ asFloat 11 53) .3 .297))
(define-fun .299 () (_ FP 8 24) ((_ asFloat 8 24) .3 .298))
(define-fun .300 () (_ FP 8 24) b1105)
(define-fun .301 () Bool (= .299 .300))
(define-fun .302 () Bool (not .301))
(define-fun .303 () (_ FP 11 53) b652)
(define-fun .304 () (_ FP 8 24) ((_ asFloat 8 24) .3 .303))
(define-fun .305 () (_ FP 8 24) b1084)
(define-fun .306 () Bool (= .304 .305))
(define-fun .307 () Bool (not .306))
(define-fun .308 () (_ FP 8 24) b176)
(define-fun .309 () Bool (== .9 .308))
(define-fun .310 () Bool (not .309))
(define-fun .311 () Bool (<= .308 .9))
(define-fun .312 () Bool (and .310 .311))
(define-fun .313 () Bool (<= .308 .304))
(define-fun .314 () Bool (not .313))
(define-fun .315 () Bool (and .312 .314))
(define-fun .316 () (_ FP 8 24) (- .304))
(define-fun .317 () Bool (= .305 .316))
(define-fun .318 () Bool (and .315 .317))
(define-fun .319 () Bool (and .307 .318))
(define-fun .320 () Bool (<= .308 .299))
(define-fun .321 () Bool (not .320))
(define-fun .322 () Bool (and .319 .321))
(define-fun .323 () (_ FP 8 24) (- .299))
(define-fun .324 () Bool (= .300 .323))
(define-fun .325 () Bool (and .322 .324))
(define-fun .326 () Bool (and .302 .325))
(define-fun .327 () Bool (= .263 .283))
(define-fun .328 () Bool (and .326 .327))
(define-fun .329 () Bool (and .285 .328))
(define-fun .330 () (_ FP 11 53) ((_ asFloat 11 53) .3 .280))
(define-fun .331 () (_ FP 11 53) b174)
(define-fun .332 () Bool (<= .330 .331))
(define-fun .333 () Bool (not .332))
(define-fun .334 () Bool (and .329 .333))
(define-fun .335 () Bool (<= .308 .279))
(define-fun .336 () Bool (not .335))
(define-fun .337 () Bool (and .334 .336))
(define-fun .338 () (_ FP 8 24) (- .279))
(define-fun .339 () Bool (= .280 .338))
(define-fun .340 () Bool (and .337 .339))
(define-fun .341 () Bool (and .282 .340))
(define-fun .342 () Bool (= .243 .263))
(define-fun .343 () Bool (and .341 .342))
(define-fun .344 () Bool (and .265 .343))
(define-fun .345 () (_ FP 11 53) ((_ asFloat 11 53) .3 .260))
(define-fun .346 () Bool (<= .345 .331))
(define-fun .347 () Bool (not .346))
(define-fun .348 () Bool (and .344 .347))
(define-fun .349 () Bool (<= .308 .259))
(define-fun .350 () Bool (not .349))
(define-fun .351 () Bool (and .348 .350))
(define-fun .352 () (_ FP 8 24) (- .259))
(define-fun .353 () Bool (= .260 .352))
(define-fun .354 () Bool (and .351 .353))
(define-fun .355 () Bool (and .262 .354))
(define-fun .356 () Bool (= .223 .243))
(define-fun .357 () Bool (and .355 .356))
(define-fun .358 () Bool (and .245 .357))
(define-fun .359 () (_ FP 11 53) ((_ asFloat 11 53) .3 .240))
(define-fun .360 () Bool (<= .359 .331))
(define-fun .361 () Bool (not .360))
(define-fun .362 () Bool (and .358 .361))
(define-fun .363 () Bool (<= .308 .239))
(define-fun .364 () Bool (not .363))
(define-fun .365 () Bool (and .362 .364))
(define-fun .366 () (_ FP 8 24) (- .239))
(define-fun .367 () Bool (= .240 .366))
(define-fun .368 () Bool (and .365 .367))
(define-fun .369 () Bool (and .242 .368))
(define-fun .370 () Bool (= .203 .223))
(define-fun .371 () Bool (and .369 .370))
(define-fun .372 () Bool (and .225 .371))
(define-fun .373 () (_ FP 11 53) ((_ asFloat 11 53) .3 .220))
(define-fun .374 () Bool (<= .373 .331))
(define-fun .375 () Bool (not .374))
(define-fun .376 () Bool (and .372 .375))
(define-fun .377 () Bool (<= .308 .219))
(define-fun .378 () Bool (not .377))
(define-fun .379 () Bool (and .376 .378))
(define-fun .380 () (_ FP 8 24) (- .219))
(define-fun .381 () Bool (= .220 .380))
(define-fun .382 () Bool (and .379 .381))
(define-fun .383 () Bool (and .222 .382))
(define-fun .384 () Bool (= .183 .203))
(define-fun .385 () Bool (and .383 .384))
(define-fun .386 () Bool (and .205 .385))
(define-fun .387 () (_ FP 11 53) ((_ asFloat 11 53) .3 .200))
(define-fun .388 () Bool (<= .387 .331))
(define-fun .389 () Bool (not .388))
(define-fun .390 () Bool (and .386 .389))
(define-fun .391 () Bool (<= .308 .199))
(define-fun .392 () Bool (not .391))
(define-fun .393 () Bool (and .390 .392))
(define-fun .394 () (_ FP 8 24) (- .199))
(define-fun .395 () Bool (= .200 .394))
(define-fun .396 () Bool (and .393 .395))
(define-fun .397 () Bool (and .202 .396))
(define-fun .398 () Bool (= .163 .183))
(define-fun .399 () Bool (and .397 .398))
(define-fun .400 () Bool (and .185 .399))
(define-fun .401 () (_ FP 11 53) ((_ asFloat 11 53) .3 .180))
(define-fun .402 () Bool (<= .401 .331))
(define-fun .403 () Bool (not .402))
(define-fun .404 () Bool (and .400 .403))
(define-fun .405 () Bool (<= .308 .179))
(define-fun .406 () Bool (not .405))
(define-fun .407 () Bool (and .404 .406))
(define-fun .408 () (_ FP 8 24) (- .179))
(define-fun .409 () Bool (= .180 .408))
(define-fun .410 () Bool (and .407 .409))
(define-fun .411 () Bool (and .182 .410))
(define-fun .412 () Bool (= .143 .163))
(define-fun .413 () Bool (and .411 .412))
(define-fun .414 () Bool (and .165 .413))
(define-fun .415 () (_ FP 11 53) ((_ asFloat 11 53) .3 .160))
(define-fun .416 () Bool (<= .415 .331))
(define-fun .417 () Bool (not .416))
(define-fun .418 () Bool (and .414 .417))
(define-fun .419 () (_ FP 11 53) ((_ asFloat 11 53) .3 .40))
(define-fun .420 () Bool (<= .419 .331))
(define-fun .421 () Bool (not .420))
(define-fun .422 () Bool (and .418 .421))
(define-fun .423 () Bool (<= .308 .159))
(define-fun .424 () Bool (not .423))
(define-fun .425 () Bool (and .422 .424))
(define-fun .426 () (_ FP 8 24) (- .159))
(define-fun .427 () Bool (= .160 .426))
(define-fun .428 () Bool (and .425 .427))
(define-fun .429 () Bool (and .162 .428))
(define-fun .430 () Bool (= .123 .143))
(define-fun .431 () Bool (and .429 .430))
(define-fun .432 () Bool (and .145 .431))
(define-fun .433 () (_ FP 11 53) ((_ asFloat 11 53) .3 .140))
(define-fun .434 () Bool (<= .433 .331))
(define-fun .435 () Bool (not .434))
(define-fun .436 () Bool (and .432 .435))
(define-fun .437 () Bool (<= .308 .139))
(define-fun .438 () Bool (not .437))
(define-fun .439 () Bool (and .436 .438))
(define-fun .440 () (_ FP 8 24) (- .139))
(define-fun .441 () Bool (= .140 .440))
(define-fun .442 () Bool (and .439 .441))
(define-fun .443 () Bool (and .142 .442))
(define-fun .444 () Bool (= .103 .123))
(define-fun .445 () Bool (and .443 .444))
(define-fun .446 () Bool (and .125 .445))
(define-fun .447 () (_ FP 11 53) ((_ asFloat 11 53) .3 .120))
(define-fun .448 () Bool (<= .447 .331))
(define-fun .449 () Bool (not .448))
(define-fun .450 () Bool (and .446 .449))
(define-fun .451 () Bool (<= .308 .119))
(define-fun .452 () Bool (not .451))
(define-fun .453 () Bool (and .450 .452))
(define-fun .454 () (_ FP 8 24) (- .119))
(define-fun .455 () Bool (= .120 .454))
(define-fun .456 () Bool (and .453 .455))
(define-fun .457 () Bool (and .122 .456))
(define-fun .458 () Bool (= .63 .83))
(define-fun .459 () Bool (and .457 .458))
(define-fun .460 () Bool (= .83 .103))
(define-fun .461 () Bool (and .459 .460))
(define-fun .462 () Bool (and .105 .461))
(define-fun .463 () Bool (and .102 .462))
(define-fun .464 () (_ FP 11 53) ((_ asFloat 11 53) .3 .98))
(define-fun .465 () Bool (<= .464 .331))
(define-fun .466 () Bool (not .465))
(define-fun .467 () Bool (and .463 .466))
(define-fun .468 () Bool (<= .308 .97))
(define-fun .469 () Bool (not .468))
(define-fun .470 () Bool (and .467 .469))
(define-fun .471 () (_ FP 8 24) (- .97))
(define-fun .472 () Bool (= .98 .471))
(define-fun .473 () Bool (and .470 .472))
(define-fun .474 () Bool (and .100 .473))
(define-fun .475 () (_ FP 11 53) ((_ asFloat 11 53) .3 .80))
(define-fun .476 () Bool (<= .475 .331))
(define-fun .477 () Bool (not .476))
(define-fun .478 () Bool (and .474 .477))
(define-fun .479 () Bool (<= .308 .79))
(define-fun .480 () Bool (not .479))
(define-fun .481 () Bool (and .478 .480))
(define-fun .482 () (_ FP 8 24) (- .79))
(define-fun .483 () Bool (= .80 .482))
(define-fun .484 () Bool (and .481 .483))
(define-fun .485 () Bool (and .82 .484))
(define-fun .486 () Bool (= .43 .63))
(define-fun .487 () Bool (and .485 .486))
(define-fun .488 () Bool (and .65 .487))
(define-fun .489 () (_ FP 11 53) ((_ asFloat 11 53) .3 .60))
(define-fun .490 () Bool (<= .489 .331))
(define-fun .491 () Bool (not .490))
(define-fun .492 () Bool (and .488 .491))
(define-fun .493 () Bool (<= .308 .59))
(define-fun .494 () Bool (not .493))
(define-fun .495 () Bool (and .492 .494))
(define-fun .496 () (_ FP 8 24) (- .59))
(define-fun .497 () Bool (= .60 .496))
(define-fun .498 () Bool (and .495 .497))
(define-fun .499 () Bool (and .62 .498))
(define-fun .500 () Bool (= .21 .43))
(define-fun .501 () Bool (and .499 .500))
(define-fun .502 () (_ FP 11 53) ((_ asFloat 11 53) .3 .27))
(define-fun .503 () Bool (<= .502 .331))
(define-fun .504 () Bool (and .501 .503))
(define-fun .505 () Bool (and .45 .504))
(define-fun .506 () Bool (<= .308 .39))
(define-fun .507 () Bool (not .506))
(define-fun .508 () Bool (and .505 .507))
(define-fun .509 () (_ FP 8 24) (- .39))
(define-fun .510 () Bool (= .40 .509))
(define-fun .511 () Bool (and .508 .510))
(define-fun .512 () Bool (and .42 .511))
(define-fun .513 () Bool (<= .308 .26))
(define-fun .514 () Bool (not .513))
(define-fun .515 () Bool (and .512 .514))
(define-fun .516 () (_ FP 8 24) (- .26))
(define-fun .517 () Bool (= .27 .516))
(define-fun .518 () Bool (and .515 .517))
(define-fun .519 () (_ FP 8 24) b662)
(define-fun .520 () Bool (<= .305 .519))
(define-fun .521 () Bool (not .520))
(define-fun .522 () Bool (and .518 .521))
(define-fun .523 () Bool (and .29 .522))
(assert .523)
(check-sat)
